data/lp_files/pEFS/67_9.lp
\ Model foo
\ LP format - for model browsing. Use MPS format to capture full model detail.
Minimize
  z
Subject To
 allocateEach[1]: x[1,1] + x[2,1] + x[3,1] + x[4,1] = 1
 allocateEach[2]: x[1,2] + x[2,2] + x[3,2] + x[4,2] = 1
 allocateEach[3]: x[1,3] + x[2,3] + x[3,3] + x[4,3] = 1
 allocateEach[4]: x[1,4] + x[2,4] + x[3,4] + x[4,4] = 1
 allocateEach[5]: x[1,5] + x[2,5] + x[3,5] + x[4,5] = 1
 allocateEach[6]: x[1,6] + x[2,6] + x[3,6] + x[4,6] = 1
 allocateEach[7]: x[1,7] + x[2,7] + x[3,7] + x[4,7] = 1
 allocateAllCash: cashProportion[1] + cashProportion[2] + cashProportion[3]
   + cashProportion[4] = 1
 findWorstP[1,2]: z + 0.1741250217656278 cashProportion[1]
   - 0.1741250217656278 cashProportion[2] + 0.1624760578095072 x[1,1]
   + 0.0687271460908933 x[1,2] + 0.1621800452725057 x[1,3]
   + 0.00403970050496256 x[1,4] + 0.1451680306460039 x[1,5]
   + 0.169057983632248 x[1,6] + 0.1142260142782518 x[1,7]
   - 0.1624760578095072 x[2,1] - 0.0687271460908933 x[2,2]
   - 0.1621800452725057 x[2,3] - 0.00403970050496256 x[2,4]
   - 0.1451680306460039 x[2,5] - 0.169057983632248 x[2,6]
   - 0.1142260142782518 x[2,7] >= 0
 findWorstP[1,3]: z + 0.1741250217656278 cashProportion[1]
   - 0.1741250217656278 cashProportion[3] + 0.1624760578095072 x[1,1]
   + 0.0687271460908933 x[1,2] + 0.1621800452725057 x[1,3]
   + 0.00403970050496256 x[1,4] + 0.1451680306460039 x[1,5]
   + 0.169057983632248 x[1,6] + 0.1142260142782518 x[1,7]
   - 0.1624760578095072 x[3,1] - 0.0687271460908933 x[3,2]
   - 0.1621800452725057 x[3,3] - 0.00403970050496256 x[3,4]
   - 0.1451680306460039 x[3,5] - 0.169057983632248 x[3,6]
   - 0.1142260142782518 x[3,7] >= 0
 findWorstP[1,4]: z + 0.1741250217656278 cashProportion[1]
   - 0.1741250217656278 cashProportion[4] + 0.1624760578095072 x[1,1]
   + 0.0687271460908933 x[1,2] + 0.1621800452725057 x[1,3]
   + 0.00403970050496256 x[1,4] + 0.1451680306460039 x[1,5]
   + 0.169057983632248 x[1,6] + 0.1142260142782518 x[1,7]
   - 0.1624760578095072 x[4,1] - 0.0687271460908933 x[4,2]
   - 0.1621800452725057 x[4,3] - 0.00403970050496256 x[4,4]
   - 0.1451680306460039 x[4,5] - 0.169057983632248 x[4,6]
   - 0.1142260142782518 x[4,7] >= 0
 findWorstP[2,1]: z - 0.1768721921539496 cashProportion[1]
   + 0.1768721921539496 cashProportion[2] - 0.1410025115851286 x[1,1]
   - 0.0549188156638013 x[1,2] - 0.1334854434185857 x[1,3]
   - 0.1309561710707842 x[1,4] - 0.1112172344264035 x[1,5]
   - 0.0855530793448654 x[1,6] - 0.1659945523364816 x[1,7]
   + 0.1410025115851286 x[2,1] + 0.0549188156638013 x[2,2]
   + 0.1334854434185857 x[2,3] + 0.1309561710707842 x[2,4]
   + 0.1112172344264035 x[2,5] + 0.0855530793448654 x[2,6]
   + 0.1659945523364816 x[2,7] >= 0
 findWorstP[2,3]: z + 0.1768721921539496 cashProportion[2]
   - 0.1768721921539496 cashProportion[3] + 0.1410025115851286 x[2,1]
   + 0.0549188156638013 x[2,2] + 0.1334854434185857 x[2,3]
   + 0.1309561710707842 x[2,4] + 0.1112172344264035 x[2,5]
   + 0.0855530793448654 x[2,6] + 0.1659945523364816 x[2,7]
   - 0.1410025115851286 x[3,1] - 0.0549188156638013 x[3,2]
   - 0.1334854434185857 x[3,3] - 0.1309561710707842 x[3,4]
   - 0.1112172344264035 x[3,5] - 0.0855530793448654 x[3,6]
   - 0.1659945523364816 x[3,7] >= 0
 findWorstP[2,4]: z + 0.1768721921539496 cashProportion[2]
   - 0.1768721921539496 cashProportion[4] + 0.1410025115851286 x[2,1]
   + 0.0549188156638013 x[2,2] + 0.1334854434185857 x[2,3]
   + 0.1309561710707842 x[2,4] + 0.1112172344264035 x[2,5]
   + 0.0855530793448654 x[2,6] + 0.1659945523364816 x[2,7]
   - 0.1410025115851286 x[4,1] - 0.0549188156638013 x[4,2]
   - 0.1334854434185857 x[4,3] - 0.1309561710707842 x[4,4]
   - 0.1112172344264035 x[4,5] - 0.0855530793448654 x[4,6]
   - 0.1659945523364816 x[4,7] >= 0
 findWorstP[3,1]: z - 0.344934634886689 cashProportion[1]
   + 0.344934634886689 cashProportion[3] - 0.1989238039391535 x[1,1]
   - 0.0264219930323204 x[1,2] - 0.00400124176468559 x[1,3]
   - 0.2159980683660446 x[1,4] - 0.0851298678900348 x[1,5]
   - 0.00748508157704115 x[1,6] - 0.1171053085440309 x[1,7]
   + 0.1989238039391535 x[3,1] + 0.0264219930323204 x[3,2]
   + 0.00400124176468559 x[3,3] + 0.2159980683660446 x[3,4]
   + 0.0851298678900348 x[3,5] + 0.00748508157704115 x[3,6]
   + 0.1171053085440309 x[3,7] >= 0
 findWorstP[3,2]: z - 0.344934634886689 cashProportion[2]
   + 0.344934634886689 cashProportion[3] - 0.1989238039391535 x[2,1]
   - 0.0264219930323204 x[2,2] - 0.00400124176468559 x[2,3]
   - 0.2159980683660446 x[2,4] - 0.0851298678900348 x[2,5]
   - 0.00748508157704115 x[2,6] - 0.1171053085440309 x[2,7]
   + 0.1989238039391535 x[3,1] + 0.0264219930323204 x[3,2]
   + 0.00400124176468559 x[3,3] + 0.2159980683660446 x[3,4]
   + 0.0851298678900348 x[3,5] + 0.00748508157704115 x[3,6]
   + 0.1171053085440309 x[3,7] >= 0
 findWorstP[3,4]: z + 0.344934634886689 cashProportion[3]
   - 0.344934634886689 cashProportion[4] + 0.1989238039391535 x[3,1]
   + 0.0264219930323204 x[3,2] + 0.00400124176468559 x[3,3]
   + 0.2159980683660446 x[3,4] + 0.0851298678900348 x[3,5]
   + 0.00748508157704115 x[3,6] + 0.1171053085440309 x[3,7]
   - 0.1989238039391535 x[4,1] - 0.0264219930323204 x[4,2]
   - 0.00400124176468559 x[4,3] - 0.2159980683660446 x[4,4]
   - 0.0851298678900348 x[4,5] - 0.00748508157704115 x[4,6]
   - 0.1171053085440309 x[4,7] >= 0
 findWorstP[4,1]: z - 0.2027287286881424 cashProportion[1]
   + 0.2027287286881424 cashProportion[4] - 0.0223407059014333 x[1,1]
   - 0.1969104141747927 x[1,2] - 0.1540332880572506 x[1,3]
   - 0.0936201269081842 x[1,4] - 0.0941066758570357 x[1,5]
   - 0.1542157439130699 x[1,6] - 0.0820443165000912 x[1,7]
   + 0.0223407059014333 x[4,1] + 0.1969104141747927 x[4,2]
   + 0.1540332880572506 x[4,3] + 0.0936201269081842 x[4,4]
   + 0.0941066758570357 x[4,5] + 0.1542157439130699 x[4,6]
   + 0.0820443165000912 x[4,7] >= 0
 findWorstP[4,2]: z - 0.2027287286881424 cashProportion[2]
   + 0.2027287286881424 cashProportion[4] - 0.0223407059014333 x[2,1]
   - 0.1969104141747927 x[2,2] - 0.1540332880572506 x[2,3]
   - 0.0936201269081842 x[2,4] - 0.0941066758570357 x[2,5]
   - 0.1542157439130699 x[2,6] - 0.0820443165000912 x[2,7]
   + 0.0223407059014333 x[4,1] + 0.1969104141747927 x[4,2]
   + 0.1540332880572506 x[4,3] + 0.0936201269081842 x[4,4]
   + 0.0941066758570357 x[4,5] + 0.1542157439130699 x[4,6]
   + 0.0820443165000912 x[4,7] >= 0
 findWorstP[4,3]: z - 0.2027287286881424 cashProportion[3]
   + 0.2027287286881424 cashProportion[4] - 0.0223407059014333 x[3,1]
   - 0.1969104141747927 x[3,2] - 0.1540332880572506 x[3,3]
   - 0.0936201269081842 x[3,4] - 0.0941066758570357 x[3,5]
   - 0.1542157439130699 x[3,6] - 0.0820443165000912 x[3,7]
   + 0.0223407059014333 x[4,1] + 0.1969104141747927 x[4,2]
   + 0.1540332880572506 x[4,3] + 0.0936201269081842 x[4,4]
   + 0.0941066758570357 x[4,5] + 0.1542157439130699 x[4,6]
   + 0.0820443165000912 x[4,7] >= 0
Bounds
 z <= 1
 -infinity <= cashProportion[1] <= 1
 -infinity <= cashProportion[2] <= 1
 -infinity <= cashProportion[3] <= 1
 -infinity <= cashProportion[4] <= 1
Binaries
 x[1,1] x[1,2] x[1,3] x[1,4] x[1,5] x[1,6] x[1,7] x[2,1] x[2,2] x[2,3]
 x[2,4] x[2,5] x[2,6] x[2,7] x[3,1] x[3,2] x[3,3] x[3,4] x[3,5] x[3,6]
 x[3,7] x[4,1] x[4,2] x[4,3] x[4,4] x[4,5] x[4,6] x[4,7]
End
