data/mps_files/pEFS/67_9.mps
NAME foo
ROWS
 N  OBJ
 E  allocateEach[1]
 E  allocateEach[2]
 E  allocateEach[3]
 E  allocateEach[4]
 E  allocateEach[5]
 E  allocateEach[6]
 E  allocateEach[7]
 E  allocateAllCash
 G  findWorstP[1,2]
 G  findWorstP[1,3]
 G  findWorstP[1,4]
 G  findWorstP[2,1]
 G  findWorstP[2,3]
 G  findWorstP[2,4]
 G  findWorstP[3,1]
 G  findWorstP[3,2]
 G  findWorstP[3,4]
 G  findWorstP[4,1]
 G  findWorstP[4,2]
 G  findWorstP[4,3]
COLUMNS
    z         OBJ       1
    z         findWorstP[1,2]  1
    z         findWorstP[1,3]  1
    z         findWorstP[1,4]  1
    z         findWorstP[2,1]  1
    z         findWorstP[2,3]  1
    z         findWorstP[2,4]  1
    z         findWorstP[3,1]  1
    z         findWorstP[3,2]  1
    z         findWorstP[3,4]  1
    z         findWorstP[4,1]  1
    z         findWorstP[4,2]  1
    z         findWorstP[4,3]  1
    cashProportion[1]  allocateAllCash  1
    cashProportion[1]  findWorstP[1,2]  1.7412502176562777e-01
    cashProportion[1]  findWorstP[1,3]  1.7412502176562777e-01
    cashProportion[1]  findWorstP[1,4]  1.7412502176562777e-01
    cashProportion[1]  findWorstP[2,1]  -1.7687219215394956e-01
    cashProportion[1]  findWorstP[3,1]  -3.4493463488668896e-01
    cashProportion[1]  findWorstP[4,1]  -2.0272872868814243e-01
    cashProportion[2]  allocateAllCash  1
    cashProportion[2]  findWorstP[1,2]  -1.7412502176562777e-01
    cashProportion[2]  findWorstP[2,1]  1.7687219215394956e-01
    cashProportion[2]  findWorstP[2,3]  1.7687219215394956e-01
    cashProportion[2]  findWorstP[2,4]  1.7687219215394956e-01
    cashProportion[2]  findWorstP[3,2]  -3.4493463488668896e-01
    cashProportion[2]  findWorstP[4,2]  -2.0272872868814243e-01
    cashProportion[3]  allocateAllCash  1
    cashProportion[3]  findWorstP[1,3]  -1.7412502176562777e-01
    cashProportion[3]  findWorstP[2,3]  -1.7687219215394956e-01
    cashProportion[3]  findWorstP[3,1]  3.4493463488668896e-01
    cashProportion[3]  findWorstP[3,2]  3.4493463488668896e-01
    cashProportion[3]  findWorstP[3,4]  3.4493463488668896e-01
    cashProportion[3]  findWorstP[4,3]  -2.0272872868814243e-01
    cashProportion[4]  allocateAllCash  1
    cashProportion[4]  findWorstP[1,4]  -1.7412502176562777e-01
    cashProportion[4]  findWorstP[2,4]  -1.7687219215394956e-01
    cashProportion[4]  findWorstP[3,4]  -3.4493463488668896e-01
    cashProportion[4]  findWorstP[4,1]  2.0272872868814243e-01
    cashProportion[4]  findWorstP[4,2]  2.0272872868814243e-01
    cashProportion[4]  findWorstP[4,3]  2.0272872868814243e-01
    MARKER    'MARKER'                 'INTORG'
    x[1,1]    allocateEach[1]  1
    x[1,1]    findWorstP[1,2]  1.6247605780950725e-01
    x[1,1]    findWorstP[1,3]  1.6247605780950725e-01
    x[1,1]    findWorstP[1,4]  1.6247605780950725e-01
    x[1,1]    findWorstP[2,1]  -1.4100251158512858e-01
    x[1,1]    findWorstP[3,1]  -1.9892380393915349e-01
    x[1,1]    findWorstP[4,1]  -2.2340705901433291e-02
    x[1,2]    allocateEach[2]  1
    x[1,2]    findWorstP[1,2]  6.8727146090893268e-02
    x[1,2]    findWorstP[1,3]  6.8727146090893268e-02
    x[1,2]    findWorstP[1,4]  6.8727146090893268e-02
    x[1,2]    findWorstP[2,1]  -5.4918815663801329e-02
    x[1,2]    findWorstP[3,1]  -2.6421993032320370e-02
    x[1,2]    findWorstP[4,1]  -1.9691041417479269e-01
    x[1,3]    allocateEach[3]  1
    x[1,3]    findWorstP[1,2]  1.6218004527250568e-01
    x[1,3]    findWorstP[1,3]  1.6218004527250568e-01
    x[1,3]    findWorstP[1,4]  1.6218004527250568e-01
    x[1,3]    findWorstP[2,1]  -1.3348544341858573e-01
    x[1,3]    findWorstP[3,1]  -4.0012417646855909e-03
    x[1,3]    findWorstP[4,1]  -1.5403328805725058e-01
    x[1,4]    allocateEach[4]  1
    x[1,4]    findWorstP[1,2]  4.0397005049625633e-03
    x[1,4]    findWorstP[1,3]  4.0397005049625633e-03
    x[1,4]    findWorstP[1,4]  4.0397005049625633e-03
    x[1,4]    findWorstP[2,1]  -1.3095617107078422e-01
    x[1,4]    findWorstP[3,1]  -2.1599806836604460e-01
    x[1,4]    findWorstP[4,1]  -9.3620126908184151e-02
    x[1,5]    allocateEach[5]  1
    x[1,5]    findWorstP[1,2]  1.4516803064600386e-01
    x[1,5]    findWorstP[1,3]  1.4516803064600386e-01
    x[1,5]    findWorstP[1,4]  1.4516803064600386e-01
    x[1,5]    findWorstP[2,1]  -1.1121723442640347e-01
    x[1,5]    findWorstP[3,1]  -8.5129867890034822e-02
    x[1,5]    findWorstP[4,1]  -0.0941066758570357
    x[1,6]    allocateEach[6]  1
    x[1,6]    findWorstP[1,2]  1.6905798363224797e-01
    x[1,6]    findWorstP[1,3]  1.6905798363224797e-01
    x[1,6]    findWorstP[1,4]  1.6905798363224797e-01
    x[1,6]    findWorstP[2,1]  -8.5553079344865390e-02
    x[1,6]    findWorstP[3,1]  -7.4850815770411494e-03
    x[1,6]    findWorstP[4,1]  -1.5421574391306991e-01
    x[1,7]    allocateEach[7]  1
    x[1,7]    findWorstP[1,2]  1.1422601427825181e-01
    x[1,7]    findWorstP[1,3]  1.1422601427825181e-01
    x[1,7]    findWorstP[1,4]  1.1422601427825181e-01
    x[1,7]    findWorstP[2,1]  -1.6599455233648164e-01
    x[1,7]    findWorstP[3,1]  -1.1710530854403089e-01
    x[1,7]    findWorstP[4,1]  -8.2044316500091224e-02
    x[2,1]    allocateEach[1]  1
    x[2,1]    findWorstP[1,2]  -1.6247605780950725e-01
    x[2,1]    findWorstP[2,1]  1.4100251158512858e-01
    x[2,1]    findWorstP[2,3]  1.4100251158512858e-01
    x[2,1]    findWorstP[2,4]  1.4100251158512858e-01
    x[2,1]    findWorstP[3,2]  -1.9892380393915349e-01
    x[2,1]    findWorstP[4,2]  -2.2340705901433291e-02
    x[2,2]    allocateEach[2]  1
    x[2,2]    findWorstP[1,2]  -6.8727146090893268e-02
    x[2,2]    findWorstP[2,1]  5.4918815663801329e-02
    x[2,2]    findWorstP[2,3]  5.4918815663801329e-02
    x[2,2]    findWorstP[2,4]  5.4918815663801329e-02
    x[2,2]    findWorstP[3,2]  -2.6421993032320370e-02
    x[2,2]    findWorstP[4,2]  -1.9691041417479269e-01
    x[2,3]    allocateEach[3]  1
    x[2,3]    findWorstP[1,2]  -1.6218004527250568e-01
    x[2,3]    findWorstP[2,1]  1.3348544341858573e-01
    x[2,3]    findWorstP[2,3]  1.3348544341858573e-01
    x[2,3]    findWorstP[2,4]  1.3348544341858573e-01
    x[2,3]    findWorstP[3,2]  -4.0012417646855909e-03
    x[2,3]    findWorstP[4,2]  -1.5403328805725058e-01
    x[2,4]    allocateEach[4]  1
    x[2,4]    findWorstP[1,2]  -4.0397005049625633e-03
    x[2,4]    findWorstP[2,1]  1.3095617107078422e-01
    x[2,4]    findWorstP[2,3]  1.3095617107078422e-01
    x[2,4]    findWorstP[2,4]  1.3095617107078422e-01
    x[2,4]    findWorstP[3,2]  -2.1599806836604460e-01
    x[2,4]    findWorstP[4,2]  -9.3620126908184151e-02
    x[2,5]    allocateEach[5]  1
    x[2,5]    findWorstP[1,2]  -1.4516803064600386e-01
    x[2,5]    findWorstP[2,1]  1.1121723442640347e-01
    x[2,5]    findWorstP[2,3]  1.1121723442640347e-01
    x[2,5]    findWorstP[2,4]  1.1121723442640347e-01
    x[2,5]    findWorstP[3,2]  -8.5129867890034822e-02
    x[2,5]    findWorstP[4,2]  -0.0941066758570357
    x[2,6]    allocateEach[6]  1
    x[2,6]    findWorstP[1,2]  -1.6905798363224797e-01
    x[2,6]    findWorstP[2,1]  8.5553079344865390e-02
    x[2,6]    findWorstP[2,3]  8.5553079344865390e-02
    x[2,6]    findWorstP[2,4]  8.5553079344865390e-02
    x[2,6]    findWorstP[3,2]  -7.4850815770411494e-03
    x[2,6]    findWorstP[4,2]  -1.5421574391306991e-01
    x[2,7]    allocateEach[7]  1
    x[2,7]    findWorstP[1,2]  -1.1422601427825181e-01
    x[2,7]    findWorstP[2,1]  1.6599455233648164e-01
    x[2,7]    findWorstP[2,3]  1.6599455233648164e-01
    x[2,7]    findWorstP[2,4]  1.6599455233648164e-01
    x[2,7]    findWorstP[3,2]  -1.1710530854403089e-01
    x[2,7]    findWorstP[4,2]  -8.2044316500091224e-02
    x[3,1]    allocateEach[1]  1
    x[3,1]    findWorstP[1,3]  -1.6247605780950725e-01
    x[3,1]    findWorstP[2,3]  -1.4100251158512858e-01
    x[3,1]    findWorstP[3,1]  1.9892380393915349e-01
    x[3,1]    findWorstP[3,2]  1.9892380393915349e-01
    x[3,1]    findWorstP[3,4]  1.9892380393915349e-01
    x[3,1]    findWorstP[4,3]  -2.2340705901433291e-02
    x[3,2]    allocateEach[2]  1
    x[3,2]    findWorstP[1,3]  -6.8727146090893268e-02
    x[3,2]    findWorstP[2,3]  -5.4918815663801329e-02
    x[3,2]    findWorstP[3,1]  2.6421993032320370e-02
    x[3,2]    findWorstP[3,2]  2.6421993032320370e-02
    x[3,2]    findWorstP[3,4]  2.6421993032320370e-02
    x[3,2]    findWorstP[4,3]  -1.9691041417479269e-01
    x[3,3]    allocateEach[3]  1
    x[3,3]    findWorstP[1,3]  -1.6218004527250568e-01
    x[3,3]    findWorstP[2,3]  -1.3348544341858573e-01
    x[3,3]    findWorstP[3,1]  4.0012417646855909e-03
    x[3,3]    findWorstP[3,2]  4.0012417646855909e-03
    x[3,3]    findWorstP[3,4]  4.0012417646855909e-03
    x[3,3]    findWorstP[4,3]  -1.5403328805725058e-01
    x[3,4]    allocateEach[4]  1
    x[3,4]    findWorstP[1,3]  -4.0397005049625633e-03
    x[3,4]    findWorstP[2,3]  -1.3095617107078422e-01
    x[3,4]    findWorstP[3,1]  2.1599806836604460e-01
    x[3,4]    findWorstP[3,2]  2.1599806836604460e-01
    x[3,4]    findWorstP[3,4]  2.1599806836604460e-01
    x[3,4]    findWorstP[4,3]  -9.3620126908184151e-02
    x[3,5]    allocateEach[5]  1
    x[3,5]    findWorstP[1,3]  -1.4516803064600386e-01
    x[3,5]    findWorstP[2,3]  -1.1121723442640347e-01
    x[3,5]    findWorstP[3,1]  8.5129867890034822e-02
    x[3,5]    findWorstP[3,2]  8.5129867890034822e-02
    x[3,5]    findWorstP[3,4]  8.5129867890034822e-02
    x[3,5]    findWorstP[4,3]  -0.0941066758570357
    x[3,6]    allocateEach[6]  1
    x[3,6]    findWorstP[1,3]  -1.6905798363224797e-01
    x[3,6]    findWorstP[2,3]  -8.5553079344865390e-02
    x[3,6]    findWorstP[3,1]  7.4850815770411494e-03
    x[3,6]    findWorstP[3,2]  7.4850815770411494e-03
    x[3,6]    findWorstP[3,4]  7.4850815770411494e-03
    x[3,6]    findWorstP[4,3]  -1.5421574391306991e-01
    x[3,7]    allocateEach[7]  1
    x[3,7]    findWorstP[1,3]  -1.1422601427825181e-01
    x[3,7]    findWorstP[2,3]  -1.6599455233648164e-01
    x[3,7]    findWorstP[3,1]  1.1710530854403089e-01
    x[3,7]    findWorstP[3,2]  1.1710530854403089e-01
    x[3,7]    findWorstP[3,4]  1.1710530854403089e-01
    x[3,7]    findWorstP[4,3]  -8.2044316500091224e-02
    x[4,1]    allocateEach[1]  1
    x[4,1]    findWorstP[1,4]  -1.6247605780950725e-01
    x[4,1]    findWorstP[2,4]  -1.4100251158512858e-01
    x[4,1]    findWorstP[3,4]  -1.9892380393915349e-01
    x[4,1]    findWorstP[4,1]  2.2340705901433291e-02
    x[4,1]    findWorstP[4,2]  2.2340705901433291e-02
    x[4,1]    findWorstP[4,3]  2.2340705901433291e-02
    x[4,2]    allocateEach[2]  1
    x[4,2]    findWorstP[1,4]  -6.8727146090893268e-02
    x[4,2]    findWorstP[2,4]  -5.4918815663801329e-02
    x[4,2]    findWorstP[3,4]  -2.6421993032320370e-02
    x[4,2]    findWorstP[4,1]  1.9691041417479269e-01
    x[4,2]    findWorstP[4,2]  1.9691041417479269e-01
    x[4,2]    findWorstP[4,3]  1.9691041417479269e-01
    x[4,3]    allocateEach[3]  1
    x[4,3]    findWorstP[1,4]  -1.6218004527250568e-01
    x[4,3]    findWorstP[2,4]  -1.3348544341858573e-01
    x[4,3]    findWorstP[3,4]  -4.0012417646855909e-03
    x[4,3]    findWorstP[4,1]  1.5403328805725058e-01
    x[4,3]    findWorstP[4,2]  1.5403328805725058e-01
    x[4,3]    findWorstP[4,3]  1.5403328805725058e-01
    x[4,4]    allocateEach[4]  1
    x[4,4]    findWorstP[1,4]  -4.0397005049625633e-03
    x[4,4]    findWorstP[2,4]  -1.3095617107078422e-01
    x[4,4]    findWorstP[3,4]  -2.1599806836604460e-01
    x[4,4]    findWorstP[4,1]  9.3620126908184151e-02
    x[4,4]    findWorstP[4,2]  9.3620126908184151e-02
    x[4,4]    findWorstP[4,3]  9.3620126908184151e-02
    x[4,5]    allocateEach[5]  1
    x[4,5]    findWorstP[1,4]  -1.4516803064600386e-01
    x[4,5]    findWorstP[2,4]  -1.1121723442640347e-01
    x[4,5]    findWorstP[3,4]  -8.5129867890034822e-02
    x[4,5]    findWorstP[4,1]  0.0941066758570357
    x[4,5]    findWorstP[4,2]  0.0941066758570357
    x[4,5]    findWorstP[4,3]  0.0941066758570357
    x[4,6]    allocateEach[6]  1
    x[4,6]    findWorstP[1,4]  -1.6905798363224797e-01
    x[4,6]    findWorstP[2,4]  -8.5553079344865390e-02
    x[4,6]    findWorstP[3,4]  -7.4850815770411494e-03
    x[4,6]    findWorstP[4,1]  1.5421574391306991e-01
    x[4,6]    findWorstP[4,2]  1.5421574391306991e-01
    x[4,6]    findWorstP[4,3]  1.5421574391306991e-01
    x[4,7]    allocateEach[7]  1
    x[4,7]    findWorstP[1,4]  -1.1422601427825181e-01
    x[4,7]    findWorstP[2,4]  -1.6599455233648164e-01
    x[4,7]    findWorstP[3,4]  -1.1710530854403089e-01
    x[4,7]    findWorstP[4,1]  8.2044316500091224e-02
    x[4,7]    findWorstP[4,2]  8.2044316500091224e-02
    x[4,7]    findWorstP[4,3]  8.2044316500091224e-02
    MARKER    'MARKER'                 'INTEND'
RHS
    RHS1      allocateEach[1]  1
    RHS1      allocateEach[2]  1
    RHS1      allocateEach[3]  1
    RHS1      allocateEach[4]  1
    RHS1      allocateEach[5]  1
    RHS1      allocateEach[6]  1
    RHS1      allocateEach[7]  1
    RHS1      allocateAllCash  1
BOUNDS
 UP BND1      z         1
 MI BND1      cashProportion[1]
 UP BND1      cashProportion[1]  1
 MI BND1      cashProportion[2]
 UP BND1      cashProportion[2]  1
 MI BND1      cashProportion[3]
 UP BND1      cashProportion[3]  1
 MI BND1      cashProportion[4]
 UP BND1      cashProportion[4]  1
 BV BND1      x[1,1]  
 BV BND1      x[1,2]  
 BV BND1      x[1,3]  
 BV BND1      x[1,4]  
 BV BND1      x[1,5]  
 BV BND1      x[1,6]  
 BV BND1      x[1,7]  
 BV BND1      x[2,1]  
 BV BND1      x[2,2]  
 BV BND1      x[2,3]  
 BV BND1      x[2,4]  
 BV BND1      x[2,5]  
 BV BND1      x[2,6]  
 BV BND1      x[2,7]  
 BV BND1      x[3,1]  
 BV BND1      x[3,2]  
 BV BND1      x[3,3]  
 BV BND1      x[3,4]  
 BV BND1      x[3,5]  
 BV BND1      x[3,6]  
 BV BND1      x[3,7]  
 BV BND1      x[4,1]  
 BV BND1      x[4,2]  
 BV BND1      x[4,3]  
 BV BND1      x[4,4]  
 BV BND1      x[4,5]  
 BV BND1      x[4,6]  
 BV BND1      x[4,7]  
ENDATA
